Ex2/NFA/output/nfa_output_NFA-1-Accepting.cnf
p cnf 39 86
1 0
-1 2 3 0
-5 6 0
-2 7 0
-3 8 0
-6 8 0
-7 9 0
-10 11 0
-8 11 0
-9 12 0
-13 14 0
-11 14 0
-12 15 16 0
-14 18 0
-15 19 0
-16 20 0
-18 20 0
-19 21 0
-22 23 0
-20 23 0
-21 24 25 0
-23 27 0
-24 28 0
-25 29 0
-27 29 0
-28 30 31 0
-29 33 0
-30 34 0
-31 35 0
-33 35 0
-34 36 0
-37 38 0
-35 38 0
1 4 5 0
-1 -4 0
-1 -5 0
-4 -5 0
2 3 6 0
-2 -3 0
-2 -6 0
-3 -6 0
7 10 8 0
-7 -10 0
-7 -8 0
-10 -8 0
9 13 11 0
-9 -13 0
-9 -11 0
-13 -11 0
12 17 14 0
-12 -17 0
-12 -14 0
-17 -14 0
15 16 18 0
-15 -16 0
-15 -18 0
-16 -18 0
19 22 20 0
-19 -22 0
-19 -20 0
-22 -20 0
21 26 23 0
-21 -26 0
-21 -23 0
-26 -23 0
24 25 27 0
-24 -25 0
-24 -27 0
-25 -27 0
28 32 29 0
-28 -32 0
-28 -29 0
-32 -29 0
30 31 33 0
-30 -31 0
-30 -33 0
-31 -33 0
34 37 35 0
-34 -37 0
-34 -35 0
-37 -35 0
36 39 38 0
-36 -39 0
-36 -38 0
-39 -38 0
38 0
