Ex2/NFA/output/nfa_output_NFA-1-Accepting.txt
(q0_0) ∧
(-q0_0 ∨ q0_1 ∨ q1_1) ∧
(-q2_0 ∨ q2_1) ∧
(-q0_1 ∨ q0_2) ∧
(-q1_1 ∨ q2_2) ∧
(-q2_1 ∨ q2_2) ∧
(-q0_2 ∨ q0_3) ∧
(-q1_2 ∨ q2_3) ∧
(-q2_2 ∨ q2_3) ∧
(-q0_3 ∨ q0_4) ∧
(-q1_3 ∨ q2_4) ∧
(-q2_3 ∨ q2_4) ∧
(-q0_4 ∨ q0_5 ∨ q1_5) ∧
(-q2_4 ∨ q2_5) ∧
(-q0_5 ∨ q0_6) ∧
(-q1_5 ∨ q2_6) ∧
(-q2_5 ∨ q2_6) ∧
(-q0_6 ∨ q0_7) ∧
(-q1_6 ∨ q2_7) ∧
(-q2_6 ∨ q2_7) ∧
(-q0_7 ∨ q0_8 ∨ q1_8) ∧
(-q2_7 ∨ q2_8) ∧
(-q0_8 ∨ q0_9) ∧
(-q1_8 ∨ q2_9) ∧
(-q2_8 ∨ q2_9) ∧
(-q0_9 ∨ q0_10 ∨ q1_10) ∧
(-q2_9 ∨ q2_10) ∧
(-q0_10 ∨ q0_11) ∧
(-q1_10 ∨ q2_11) ∧
(-q2_10 ∨ q2_11) ∧
(-q0_11 ∨ q0_12) ∧
(-q1_11 ∨ q2_12) ∧
(-q2_11 ∨ q2_12) ∧
(q0_0 ∨ q1_0 ∨ q2_0) ∧
(-q0_0 ∨ -q1_0) ∧
(-q0_0 ∨ -q2_0) ∧
(-q1_0 ∨ -q2_0) ∧
(q0_1 ∨ q1_1 ∨ q2_1) ∧
(-q0_1 ∨ -q1_1) ∧
(-q0_1 ∨ -q2_1) ∧
(-q1_1 ∨ -q2_1) ∧
(q0_2 ∨ q1_2 ∨ q2_2) ∧
(-q0_2 ∨ -q1_2) ∧
(-q0_2 ∨ -q2_2) ∧
(-q1_2 ∨ -q2_2) ∧
(q0_3 ∨ q1_3 ∨ q2_3) ∧
(-q0_3 ∨ -q1_3) ∧
(-q0_3 ∨ -q2_3) ∧
(-q1_3 ∨ -q2_3) ∧
(q0_4 ∨ q1_4 ∨ q2_4) ∧
(-q0_4 ∨ -q1_4) ∧
(-q0_4 ∨ -q2_4) ∧
(-q1_4 ∨ -q2_4) ∧
(q0_5 ∨ q1_5 ∨ q2_5) ∧
(-q0_5 ∨ -q1_5) ∧
(-q0_5 ∨ -q2_5) ∧
(-q1_5 ∨ -q2_5) ∧
(q0_6 ∨ q1_6 ∨ q2_6) ∧
(-q0_6 ∨ -q1_6) ∧
(-q0_6 ∨ -q2_6) ∧
(-q1_6 ∨ -q2_6) ∧
(q0_7 ∨ q1_7 ∨ q2_7) ∧
(-q0_7 ∨ -q1_7) ∧
(-q0_7 ∨ -q2_7) ∧
(-q1_7 ∨ -q2_7) ∧
(q0_8 ∨ q1_8 ∨ q2_8) ∧
(-q0_8 ∨ -q1_8) ∧
(-q0_8 ∨ -q2_8) ∧
(-q1_8 ∨ -q2_8) ∧
(q0_9 ∨ q1_9 ∨ q2_9) ∧
(-q0_9 ∨ -q1_9) ∧
(-q0_9 ∨ -q2_9) ∧
(-q1_9 ∨ -q2_9) ∧
(q0_10 ∨ q1_10 ∨ q2_10) ∧
(-q0_10 ∨ -q1_10) ∧
(-q0_10 ∨ -q2_10) ∧
(-q1_10 ∨ -q2_10) ∧
(q0_11 ∨ q1_11 ∨ q2_11) ∧
(-q0_11 ∨ -q1_11) ∧
(-q0_11 ∨ -q2_11) ∧
(-q1_11 ∨ -q2_11) ∧
(q0_12 ∨ q1_12 ∨ q2_12) ∧
(-q0_12 ∨ -q1_12) ∧
(-q0_12 ∨ -q2_12) ∧
(-q1_12 ∨ -q2_12) ∧
(q2_12)